succeed=True
config:eval_tsp="2023-03-31 04:57:44"
config:arch=arch6
config:num_worker=4
config:sample_type=khop2
config:root_path=/nvme/graph-learning-copy/samgraph/
config:dataset=mag240m-homo
config:pipeline=False
config:cache_policy=coll_cache_asymm_link
config:cache_percentage=0.0203
config:num_epoch=5
config:batch_size=1000
config:num_hidden=256
config:max_sampling_jobs=1
config:max_copying_jobs=1
config:barriered_epoch=1
config:presample_epoch=2
config:omp_thread_num=40
config:unsupervised=True
config:amp=True
config:rolling=0
config:fanout=[25, 10]
config:lr=0.003
config:dropout=0.5
config:max_num_step=1000
config:validate_configs=False
config:report_acc=0
config:dataset_path=/nvme/graph-learning-copy/samgraph/mag240m-homo
config:workers=['cuda:0', 'cuda:1', 'cuda:2', 'cuda:3']
config:num_fanout=2
config:num_layer=2
config:_run_mode=RunMode.SGNN
config:_log_level=warn
config:_profile_level=3
config:_empty_feat=25
config:_arch=6
config:_sample_type=5
config:_cache_policy=13
test_result:init:input_scale_factor=1.12834
0 :  {link #0 : 1}, {link #1 : 2}, {link #2 : 3},
1 :  {link #0 : 2}, {link #1 : 3}, {link #2 : 0},
2 :  {link #0 : 3}, {link #1 : 0}, {link #2 : 1},
3 :  {link #0 : 0}, {link #1 : 1}, {link #2 : 2},
0 :  {link #0 : 1}, {link #1 : 2}, {link #2 : 3},
1 :  {link #0 : 2}, {link #1 : 3}, {link #2 : 0},
2 :  {link #0 : 3}, {link #1 : 0}, {link #2 : 1},
3 :  {link #0 : 0}, {link #1 : 1}, {link #2 : 2},
0 :  {link #0 : 1}, {link #1 : 2}, {link #2 : 3},
1 :  {link #0 : 2}, {link #1 : 3}, {link #2 : 0},
2 :  {link #0 : 3}, {link #1 : 0}, {link #2 : 1},
3 :  {link #0 : 0}, {link #1 : 1}, {link #2 : 2},
0 :  {link #0 : 1}, {link #1 : 2}, {link #2 : 3},
1 :  {link #0 : 2}, {link #1 : 3}, {link #2 : 0},
2 :  {link #0 : 3}, {link #1 : 0}, {link #2 : 1},
3 :  {link #0 : 0}, {link #1 : 1}, {link #2 : 2},
Set parameter WLSAccessID
Set parameter WLSSecret
Set parameter LicenseID
Set parameter TimeLimit to value 200
Set parameter MIPGap to value 0.05
Set parameter LogFile to value "cppsolver.log"
Set parameter Threads to value 40
Academic license - for non-commercial use only - registered to xiaoniu.sxn@sjtu.edu.cn
Gurobi Optimizer version 9.5.1 build v9.5.1rc2 (linux64)
Thread count: 40 physical cores, 80 logical processors, using up to 40 threads
Academic license - for non-commercial use only - registered to xiaoniu.sxn@sjtu.edu.cn
Optimize a model with 9336 rows, 3048 columns and 28664 nonzeros
Model fingerprint: 0xf8d4f23a
Variable types: 5 continuous, 3043 integer (3043 binary)
Coefficient statistics:
  Matrix range     [5e-05, 4e+03]
  Objective range  [1e+00, 1e+00]
  Bounds range     [1e+00, 1e+00]
  RHS range        [1e+00, 1e+04]
Found heuristic solution: objective 9967.9625623
Presolve removed 6564 rows and 107 columns
Presolve time: 0.03s
Presolved: 2772 rows, 2941 columns, 8304 nonzeros
Variable types: 0 continuous, 2941 integer (2941 binary)
Found heuristic solution: objective 9733.1514968

Root relaxation: objective 5.170975e+03, 2217 iterations, 0.02 seconds (0.01 work units)

    Nodes    |    Current Node    |     Objective Bounds      |     Work
 Expl Unexpl |  Obj  Depth IntInf | Incumbent    BestBd   Gap | It/Node Time

     0     0 5170.97515    0   25 9733.15150 5170.97515  46.9%     -    0s
H    0     0                    5355.6276779 5170.97515  3.45%     -    0s

Explored 1 nodes (3389 simplex iterations) in 0.09 seconds (0.06 work units)
Thread count was 40 (of 80 available processors)

Solution count 3: 5355.63 9733.15 9967.96 

Optimal solution found (tolerance 5.00e-02)
Best objective 5.355627677895e+03, best bound 5.170975146379e+03, gap 3.4478%
coll_cache:optimal_local_rate=0.161211,0.171872,0.183182,0.148322,
coll_cache:optimal_remote_rate=0.489363,0.478703,0.467392,0.502253,
coll_cache:optimal_cpu_rate=0.349425,0.349425,0.349425,0.349425,
z=5355.63
test_result:init:feat_nbytes=375030526464
test_result:init:cache_nbytes=7988149248
test_result:init:feat_nbytes=375030526464
test_result:init:cache_nbytes=7988149248
test_result:init:feat_nbytes=375030526464
test_result:init:cache_nbytes=7988149248
test_result:init:feat_nbytes=375030526464
test_result:init:cache_nbytes=7988149248
[CUDA] cuda0: usage: 14.13 GB
[SAM] cuda0 data alloc        : 38.84 MB
[SAM] cuda0 workspace         : 2.49 GB
[SAM] cuda0 workspace reserve : 805.48 MB
[SAM] cuda0 total             : 2.53 GB
    [Step(average) Profiler Level 1 E4 S999]
        L1  sample           0.015780 | send           0.000000
        L1  recv             0.000000 | copy           0.023777 | convert time 0.000490 | train  0.011195
        L1  feature nbytes  709.00 MB | label nbytes    7.81 KB
        L1  id nbytes      0.00 Bytes | graph nbytes 0.00 Bytes
        L1  miss nbytes     261.12 MB | remote nbytes  333.44 MB
        L1  num nodes          484011 | num samples      550327
    [Step(average) Profiler Level 2 E4 S999]
        L2  shuffle     0.000050 | core sample  0.014312 | id remap        0.001144
        L2  graph copy  0.000000 | id copy      0.000000 | cache feat copy 0.023039
        L2  last layer sample time 0.000482 | size 24926.209802
    [Step(average) Profiler Level 3 E4 S999]
        L3  khop sample coo  0.014050 | khop sort coo      0.000000 | khop count edge     0.000036 | khop compact edge 0.000165
        L3  walk sample coo  0.000000 | walk topk total    0.000000 | walk topk step1     0.000000 | walk topk step2   0.000000
        L3  walk topk step3  0.000000 | walk topk step4    0.000000 | walk topk step5     0.000000
        L3  walk topk step6  0.000000 | walk topk step7    0.000000
        L3  remap unique     0.000257 | remap populate     0.000981 | remap mapnode       0.000000 | remap mapedge     0.000176
        L3  cache get_index  0.000382 | cache copy_index   0.000000 | cache extract_miss  0.000000
        L3  cache copy_miss  0.000000 | cache combine_miss 0.022651 | cache combine cache 0.003212 | cache combine remote 0.003043
        L3  label extract  0.000033
    [Init Profiler Level 1]
        L1  init    12.5051 | sampler init    22.5051 | trainer init 18.1878
    [Init Profiler Level 2]
        L2  load ds        23.1048 | init queue           0.0000
        L2  presample      10.0259 | build interal ds     1.8773
        L2  build cache    18.1861
    [Init Profiler Level 3]
        L3  load dataset: mmap    12.5030 | copy         0.0000
        L3  dist queue: alloc      0.0000 | pin          0.0000 | push     0.0000
        L3  presample: init        0.6602
        L3  presample: sample      3.9524 | copy         0.3213
        L3  presample: count       2.4892 | sort         0.5922
        L3  presample: reset       0.0027 | get rank     0.0769
        L3  internal: cuda ctx     0.0002 | cuda stream     0.0001
[Worker 3/4] Started with PID 54724(Tesla V100-SXM2-16GB)
worker 3 at process 54724
[Worker 3] run for 5 epochs with 250 steps
[Train  Worker 3] Avg Epoch 12.8358 | Sample 3.9426 | Copy 5.9473 | Train Total (Profiler) 2.9198
[Worker 2/4] Started with PID 54720(Tesla V100-SXM2-16GB)
worker 2 at process 54720
[Worker 2] run for 5 epochs with 250 steps
[Train  Worker 2] Avg Epoch 12.8358 | Sample 3.9515 | Copy 5.9372 | Train Total (Profiler) 2.9208
[Worker 0/4] Started with PID 54716(Tesla V100-SXM2-16GB)
worker 0 at process 54716
[Worker 0] run for 5 epochs with 250 steps
Epoch 00000 | Epoch Time 13.9621 | Sample 3.9628 | Copy 5.9789 | Total Train(Profiler) 3.9962
Epoch 00001 | Epoch Time 12.8292 | Sample 3.9433 | Copy 5.9385 | Total Train(Profiler) 2.9225
Epoch 00002 | Epoch Time 12.8361 | Sample 3.9384 | Copy 5.9546 | Total Train(Profiler) 2.9186
Epoch 00003 | Epoch Time 12.8525 | Sample 3.9447 | Copy 5.9477 | Total Train(Profiler) 2.9345
Epoch 00004 | Epoch Time 12.8253 | Sample 3.9350 | Copy 5.9544 | Total Train(Profiler) 2.9126
[Train  Worker 0] Avg Epoch 12.8358 | Sample 3.9404 | Copy 5.9488 | Train Total (Profiler) 2.9220
|===========================================================================|
|                  PyTorch CUDA memory summary, device ID 0                 |
|---------------------------------------------------------------------------|
|            CUDA OOMs: 0            |        cudaMalloc retries: 0         |
|===========================================================================|
|        Metric         | Cur Usage  | Peak Usage | Tot Alloc  | Tot Freed  |
|---------------------------------------------------------------------------|
| Allocated memory      |   22685 KB |  336599 KB |    1127 GB |    1127 GB |
|       from large pool |   13967 KB |  333824 KB |    1108 GB |    1108 GB |
|       from small pool |    8717 KB |   11034 KB |      18 GB |      18 GB |
|---------------------------------------------------------------------------|
| Active memory         |   22685 KB |  336599 KB |    1127 GB |    1127 GB |
|       from large pool |   13967 KB |  333824 KB |    1108 GB |    1108 GB |
|       from small pool |    8718 KB |   11034 KB |      18 GB |      18 GB |
|---------------------------------------------------------------------------|
| GPU reserved memory   |  421888 KB |  421888 KB |  421888 KB |       0 B  |
|       from large pool |  407552 KB |  407552 KB |  407552 KB |       0 B  |
|       from small pool |   14336 KB |   14336 KB |   14336 KB |       0 B  |
|---------------------------------------------------------------------------|
| Non-releasable memory |   22370 KB |  344407 KB |     993 GB |     993 GB |
|       from large pool |   20848 KB |  340328 KB |     973 GB |     973 GB |
|       from small pool |    1522 KB |    4100 KB |      20 GB |      20 GB |
|---------------------------------------------------------------------------|
| Allocations           |      43    |      62    |  180039    |  179996    |
|       from large pool |       7    |      16    |   63753    |   63746    |
|       from small pool |      36    |      47    |  116286    |  116250    |
|---------------------------------------------------------------------------|
| Active allocs         |      44    |      62    |  180039    |  179995    |
|       from large pool |       7    |      16    |   63753    |   63746    |
|       from small pool |      37    |      47    |  116286    |  116249    |
|---------------------------------------------------------------------------|
| GPU reserved segments |      14    |      14    |      14    |       0    |
|       from large pool |       7    |       7    |       7    |       0    |
|       from small pool |       7    |       7    |       7    |       0    |
|---------------------------------------------------------------------------|
| Non-releasable allocs |      15    |      28    |   77087    |   77072    |
|       from large pool |       3    |      11    |   40870    |   40867    |
|       from small pool |      12    |      21    |   36217    |   36205    |
|---------------------------------------------------------------------------|
| Oversize allocations  |       0    |       0    |       0    |       0    |
|---------------------------------------------------------------------------|
| Oversize GPU segments |       0    |       0    |       0    |       0    |
|===========================================================================|

test_result:sample_time=nan
test_result:epoch_time:sample_total=3.9404
test_result:epoch_time:copy_time=5.9488
test_result:convert_time=0.1211
test_result:train_time=2.8009
test_result:epoch_time:train_total=2.9220
test_result:cache_percentage=0.0203
test_result:cache_hit_rate=1.0000
test_result:epoch_time:total=12.8358
test_result:run_time=65.3086
[Worker 1/4] Started with PID 54718(Tesla V100-SXM2-16GB)
worker 1 at process 54718
[Worker 1] run for 5 epochs with 250 steps
[Train  Worker 1] Avg Epoch 12.8359 | Sample 3.9455 | Copy 5.9431 | Train Total (Profiler) 2.9217

